
Log started (V12.9.0.0) Tue Sep 15 13:33:52 2020

New value for parallel optimization mode: -1
New value for emphasis for MIP optimization: 1
New value for mixed integer optimality gap tolerance: 0.01
New value for integrality tolerance: 1e-12
New value for deterministic time limit in ticks: 75000

Problem 'C:\Users\llavin\Desktop\test826\logs\tmp4wcpybyb.pyomo.lp' read.
Read time = 0.23 sec. (14.75 ticks)
MIP start file 'C:\Users\llavin\Desktop\test826\logs\tmpl1__dzno.cplex.mst' read.

Problem name         : C:\Users\llavin\Desktop\test826\logs\tmp4wcpybyb.pyomo.lp
Objective sense      : Maximize
Variables            :   54525  [Nneg: 1,  Box: 22720,  Free: 4464,
                                 Binary: 27340]
Objective nonzeros   :    9798
Linear constraints   :  123205  [Less: 41346,  Greater: 59096,  Equal: 22763]
  Nonzeros           :  291705
  RHS nonzeros       :   70419

Variables            : Min LB: -5000.000        Max UB: 1000000.       
Objective nonzeros   : Min   : 1.000000e-06     Max   : 731.8583       
Linear constraints   :
  Nonzeros           : Min   : 1.000000e-06     Max   : 1000000.       
  RHS nonzeros       : Min   : 1.000000e-06     Max   : 1000000.       
CPXPARAM_Parallel                                -1
CPXPARAM_Emphasis_MIP                            1
CPXPARAM_DetTimeLimit                            75000
CPXPARAM_MIP_Tolerances_MIPGap                   0.01
CPXPARAM_MIP_Tolerances_Integrality              9.9999999999999998e-13
Warning:  No solution found from 1 MIP starts.
Retaining values of one MIP start for possible repair.
Tried aggregator 3 times.
MIP Presolve eliminated 87613 rows and 16905 columns.
MIP Presolve added 3354 rows and 0 columns.
MIP Presolve modified 25199 coefficients.
Aggregator did 12952 substitutions.
Reduced MIP has 25994 rows, 24304 columns, and 76244 nonzeros.
Reduced MIP has 8402 binaries, 0 generals, 0 SOSs, and 0 indicators.
Presolve time = 0.30 sec. (179.87 ticks)
Probing fixed 463 vars, tightened 3635 bounds.
Probing time = 1.50 sec. (1088.30 ticks)
Tried aggregator 2 times.
MIP Presolve eliminated 1028 rows and 927 columns.
MIP Presolve modified 2442 coefficients.
Aggregator did 59 substitutions.
Reduced MIP has 24907 rows, 23318 columns, and 73079 nonzeros.
Reduced MIP has 7939 binaries, 0 generals, 0 SOSs, and 0 indicators.
Presolve time = 0.11 sec. (73.30 ticks)
Probing fixed 0 vars, tightened 233 bounds.
Probing time = 0.39 sec. (254.36 ticks)
Clique table members: 12962.
MIP emphasis: integer feasibility.
MIP search method: dynamic search.
Parallel mode: opportunistic, using up to 32 threads.
Root relaxation solution time = 0.47 sec. (703.25 ticks)

        Nodes                                         Cuts/
   Node  Left     Objective  IInf  Best Integer    Best Bound    ItCnt     Gap

      0     0      132.6681   182                    132.6681     7325         
      0     0      132.6681     2                     Cuts: 4     7329         
      0     0      132.6681     1                   Covers: 1     7330         
Repair heuristic found nothing.
      0     8    infeasible                       Impl Bds: 1     7430         
Elapsed time = 5.56 sec. (3275.14 ticks, tree = 0.02 MB, solutions = 0)
    527   111     -143.4803    10                     77.2400    11171         
    929   457   -91464.6312    60                     77.2400    38015         
   1524   531    infeasible                           77.2400    42111         
   2140   624       48.0784    15                     77.2400    53575         
   2776  1117      -79.0456    14                     76.9408    77801         
   3345  1261    infeasible                           76.0425    84122         
   3917  1603     -160.5740     9                     76.0425    99216         
   4586  1926     -324.4226     7                     76.0425   117821         
   5312  2485     -119.7234     6                     76.0425   156118         
   8054  3240    -4366.7941    10                     76.0425   193208         
Elapsed time = 23.22 sec. (6381.69 ticks, tree = 31.01 MB, solutions = 0)
   9066  4052    infeasible                           76.0425   236770         
  10440   393    -2852.5650    15                     76.0425   263717         
  13583  1351    -1966.6221    20                     76.0425   284668         
  16679  2551    -3316.6641    15                     76.0425   321600         
  19691  3942      -81.2376    18                     76.0425   372788         
  20176  4465    -9500.0396    44                     76.0425   399529         
  20898  4461    -2886.0258    16                     76.0425   398410         
  23426  4609    -1023.7888    14                     76.0425   406029         
  26809  4998    infeasible                           76.0425   422576         
  30249  6239    infeasible                           76.0425   477687         
Elapsed time = 73.03 sec. (18882.45 ticks, tree = 82.76 MB, solutions = 0)
  33829  6578    infeasible                           76.0425   492653         
  37347  7872    infeasible                           76.0425   550700         
  40585  8930    infeasible                           76.0425   598395         
  43776  9795     -350.9524    13                     76.0425   639111         
  47293 10908    -1569.9743    12                     76.0425   691231         
  50814 11207    -9242.3250    54                     76.0425   703395         
  54243 12182   -69378.0990    72                     76.0425   753541         
  57414 12911    infeasible                           76.0425   789940         
  60505 14525    -1552.9097    14                     76.0425   889670         
  63520 14877    -2270.4964    11                     76.0425   907817         
Elapsed time = 162.34 sec. (28421.37 ticks, tree = 566.30 MB, solutions = 0)
